<number of tasks>
70

<cycle time>
176

<task times>
1 17
2 66
3 54
4 52
5 6
6 88
7 21
8 128
9 68
10 70
11 85
12 21
13 134
14 135
15 94
16 90
17 50
18 143
19 19
20 54
21 50
22 40
23 73
24 12
25 152
26 42
27 45
28 74
29 26
30 11
31 31
32 50
33 102
34 46
35 35
36 40
37 2
38 1
39 3
40 13
41 16
42 25
43 21
44 43
45 30
46 83
47 89
48 56
49 59
50 43
51 11
52 26
53 44
54 121
55 38
56 68
57 22
58 7
59 16
60 32
61 25
62 27
63 156
64 28
65 15
66 26
67 18
68 72
69 23
70 27

<precedence relations>
1,2
1,41
1,69
1,70
2,3
3,4
3,68
4,6
4,7
5,6
5,24
5,30
6,8
7,8
8,12
9,10
10,11
11,12
12,13
12,14
13,23
14,23
15,16
16,17
16,18
17,19
18,19
19,20
19,22
19,57
20,21
21,23
22,23
23,25
23,31
23,33
24,25
25,26
25,27
25,28
25,29
26,35
27,35
28,35
29,35
30,31
31,32
32,35
33,34
34,35
35,36
35,44
35,48
35,51
35,53
35,56
35,60
35,61
35,62
36,37
37,38
38,39
39,40
40,42
41,42
42,43
43,50
44,45
45,46
46,47
47,50
48,49
49,50
51,52
52,54
53,54
54,55
57,58
58,59
59,60
61,65
62,63
63,64
64,65
64,66
64,67

<setup times forward>
1,9:4
1,10:4
1,11:5
1,15:10
1,16:4
1,17:5
1,20:4
1,21:4
1,22:9
1,41:4
1,57:6
1,58:6
1,59:1
1,69:7
1,70:3
2,9:4
2,10:4
2,11:5
2,15:10
2,16:4
2,17:5
2,20:4
2,21:4
2,22:9
2,41:4
2,57:6
2,58:6
2,59:1
2,69:7
2,70:3
3,4:10
3,9:4
3,10:4
3,11:5
3,15:10
3,16:4
3,17:5
3,20:4
3,21:4
3,22:9
3,41:4
3,57:6
3,58:6
3,59:1
3,68:4
3,69:7
3,70:3
4,5:10
4,6:14
4,9:14
4,10:6
4,11:15
4,16:6
4,17:15
4,18:10
4,19:10
4,20:14
4,21:14
4,22:19
4,24:10
4,30:10
4,41:14
4,57:4
4,58:4
4,59:11
4,68:14
4,69:3
4,70:7
5,4:10
5,6:4
5,7:10
5,9:4
5,10:4
5,11:5
5,15:10
5,16:4
5,17:5
5,20:4
5,21:4
5,22:9
5,41:4
5,57:6
5,58:6
5,59:1
5,68:4
5,69:7
5,70:3
6,7:14
6,8:7
6,10:8
6,11:1
6,15:14
6,16:8
6,17:1
6,18:4
6,19:4
6,22:5
6,24:4
6,30:4
6,57:10
6,58:10
6,59:3
6,69:11
6,70:7
7,5:10
7,6:14
7,8:7
7,9:14
7,10:6
7,11:15
7,16:6
7,17:15
7,18:10
7,19:10
7,20:14
7,21:14
7,22:19
7,24:10
7,30:10
7,41:14
7,57:4
7,58:4
7,59:11
7,68:14
7,69:3
7,70:7
8,9:7
8,10:1
8,11:8
8,12:8
8,15:7
8,16:1
8,17:8
8,18:3
8,19:3
8,20:7
8,21:7
8,22:12
8,24:3
8,30:3
8,41:7
8,57:3
8,58:3
8,59:4
8,68:7
8,69:4
9,1:4
9,2:4
9,3:4
9,4:14
9,5:4
9,7:14
9,8:7
9,10:8
9,15:14
9,16:8
9,17:1
9,18:4
9,19:4
9,22:5
9,24:4
9,30:4
9,57:10
9,58:10
9,59:3
9,69:11
9,70:7
10,1:4
10,2:4
10,3:4
10,4:6
10,5:4
10,6:8
10,7:6
10,8:1
10,11:9
10,15:6
10,17:9
10,18:4
10,19:4
10,20:8
10,21:8
10,22:13
10,24:4
10,30:4
10,41:8
10,57:2
10,58:2
10,59:5
10,68:8
10,69:3
10,70:1
11,1:5
11,2:5
11,3:5
11,4:15
11,5:5
11,6:1
11,7:15
11,8:8
11,15:15
11,16:9
11,18:5
11,19:5
11,20:1
11,21:1
11,22:4
11,24:5
11,30:5
11,41:1
11,57:11
11,58:11
11,59:4
11,68:1
11,69:12
11,70:8
12,13:11
12,14:4
12,15:15
12,16:9
12,18:5
12,19:5
12,20:1
12,21:1
12,22:4
12,24:5
12,30:5
12,41:1
12,57:11
12,58:11
12,59:4
12,68:1
12,69:12
12,70:8
13,14:15
13,15:4
13,16:2
13,17:11
13,18:6
13,19:6
13,20:10
13,21:10
13,22:15
13,23:17
13,24:6
13,30:6
13,41:10
13,59:7
13,68:10
13,69:1
13,70:3
14,13:15
14,15:19
14,16:13
14,17:4
14,18:9
14,19:9
14,20:5
14,21:5
14,23:2
14,24:9
14,30:9
14,41:5
14,57:15
14,58:15
14,59:8
14,68:5
14,69:16
14,70:12
15,1:10
15,2:10
15,3:10
15,5:10
15,6:14
15,8:7
15,9:14
15,10:6
15,11:15
15,12:15
15,13:4
15,14:19
15,16:6
15,24:10
15,30:10
15,41:14
15,68:14
15,69:3
15,70:7
16,1:4
16,2:4
16,3:4
16,4:6
16,5:4
16,6:8
16,7:6
16,8:1
16,9:8
16,11:9
16,12:9
16,13:2
16,14:13
16,17:9
16,18:4
16,24:4
16,30:4
16,41:8
16,68:8
16,69:3
16,70:1
17,1:5
17,2:5
17,3:5
17,4:15
17,5:5
17,6:1
17,7:15
17,8:8
17,9:1
17,10:9
17,13:11
17,14:4
17,18:5
17,19:5
17,24:5
17,30:5
17,41:1
17,68:1
17,69:12
17,70:8
18,4:10
18,6:4
18,7:10
18,8:3
18,9:4
18,10:4
18,11:5
18,12:5
18,13:6
18,14:9
18,17:5
18,41:4
18,68:4
18,69:7
18,70:3
19,4:10
19,6:4
19,7:10
19,8:3
19,9:4
19,10:4
19,11:5
19,12:5
19,13:6
19,14:9
19,20:4
19,22:9
19,41:4
19,57:6
19,68:4
19,69:7
19,70:3
20,1:4
20,2:4
20,3:4
20,4:14
20,5:4
20,7:14
20,8:7
20,10:8
20,11:1
20,12:1
20,13:10
20,14:5
20,22:5
20,24:4
20,30:4
20,57:10
20,58:10
20,59:3
20,69:11
20,70:7
21,1:4
21,2:4
21,3:4
21,4:14
21,5:4
21,7:14
21,8:7
21,10:8
21,11:1
21,12:1
21,13:10
21,14:5
21,22:5
21,23:7
21,24:4
21,30:4
21,57:10
21,58:10
21,59:3
21,69:11
21,70:7
22,1:9
22,2:9
22,3:9
22,4:19
22,5:9
22,6:5
22,7:19
22,8:12
22,9:5
22,10:13
22,11:4
22,12:4
22,13:15
22,20:5
22,21:5
22,23:2
22,24:9
22,30:9
22,41:5
22,57:15
22,58:15
22,59:8
22,68:5
22,69:16
22,70:12
23,24:11
23,25:10
23,30:11
23,31:14
23,41:7
23,57:17
23,58:17
23,59:10
23,68:7
23,69:18
23,70:14
24,4:10
24,6:4
24,7:10
24,8:3
24,9:4
24,10:4
24,11:5
24,12:5
24,13:6
24,14:9
24,15:10
24,16:4
24,17:5
24,20:4
24,21:4
24,22:9
24,23:11
24,25:1
24,31:3
24,32:3
24,33:11
24,34:7
24,41:4
24,57:6
24,58:6
24,59:1
24,68:4
24,69:7
24,70:3
25,26:8
25,27:8
25,28:4
25,29:8
25,30:1
25,31:4
25,32:4
25,33:10
25,34:8
25,41:3
25,57:7
25,58:7
25,68:3
25,69:8
25,70:4
26,28:4
26,30:7
26,31:4
26,32:4
26,33:18
26,35:20
26,41:11
26,57:1
26,58:1
26,59:8
26,68:11
26,70:4
27,28:4
27,30:7
27,31:4
27,32:4
27,33:18
27,35:20
27,41:11
27,57:1
27,58:1
27,59:8
27,68:11
27,70:4
28,26:4
28,27:4
28,29:4
28,30:3
28,33:14
28,34:4
28,35:16
28,41:7
28,57:3
28,58:3
28,59:4
28,68:7
28,69:4
29,28:4
29,30:7
29,31:4
29,32:4
29,33:18
29,35:20
29,41:11
29,57:1
29,58:1
29,59:8
29,68:11
29,70:4
30,4:10
30,6:4
30,7:10
30,8:3
30,9:4
30,10:4
30,11:5
30,12:5
30,13:6
30,14:9
30,15:10
30,16:4
30,17:5
30,20:4
30,21:4
30,22:9
30,23:11
30,25:1
30,26:7
30,27:7
30,28:3
30,29:7
30,31:3
30,33:11
30,34:7
30,41:4
30,57:6
30,58:6
30,59:1
30,68:4
30,69:7
30,70:3
31,24:3
31,25:4
31,26:4
31,27:4
31,29:4
31,33:14
31,34:4
31,41:7
31,57:3
31,58:3
31,59:4
31,68:7
31,69:4
32,24:3
32,25:4
32,26:4
32,27:4
32,29:4
32,33:14
32,34:4
32,35:16
32,41:7
32,57:3
32,58:3
32,59:4
32,68:7
32,69:4
33,24:11
33,25:10
33,26:18
33,27:18
33,28:14
33,29:18
33,30:11
33,31:14
33,32:14
33,34:18
33,41:7
33,57:17
33,58:17
33,59:10
33,68:7
33,69:18
33,70:14
34,24:7
34,25:8
34,28:4
34,30:7
34,31:4
34,32:4
34,35:20
34,41:11
34,57:1
34,58:1
34,59:8
34,68:11
34,70:4
35,36:23
35,41:9
35,48:20
35,53:23
35,56:15
35,57:19
35,58:19
35,59:12
35,60:20
35,61:20
35,68:9
35,69:20
35,70:16
36,41:14
36,44:23
36,45:23
36,47:8
36,48:3
36,49:3
36,51:23
36,52:23
36,54:12
36,55:3
36,56:8
36,57:4
36,58:4
36,59:11
36,60:3
36,61:3
36,62:23
36,63:21
36,64:12
36,65:3
36,66:12
36,67:8
36,68:14
36,69:3
36,70:7
37,41:14
37,44:23
37,45:23
37,47:8
37,48:3
37,49:3
37,51:23
37,52:23
37,54:12
37,55:3
37,56:8
37,57:4
37,58:4
37,59:11
37,60:3
37,61:3
37,62:23
37,63:21
37,64:12
37,65:3
37,66:12
37,67:8
37,68:14
37,69:3
37,70:7
38,41:14
38,44:23
38,45:23
38,47:8
38,48:3
38,49:3
38,51:23
38,52:23
38,54:12
38,55:3
38,56:8
38,57:4
38,58:4
38,59:11
38,60:3
38,61:3
38,62:23
38,63:21
38,64:12
38,65:3
38,66:12
38,67:8
38,68:14
38,69:3
38,70:7
39,40:3
39,41:14
39,44:23
39,45:23
39,47:8
39,48:3
39,49:3
39,51:23
39,52:23
39,54:12
39,55:3
39,56:8
39,57:4
39,58:4
39,59:11
39,60:3
39,61:3
39,62:23
39,63:21
39,64:12
39,65:3
39,66:12
39,67:8
39,68:14
39,69:3
39,70:7
40,41:11
40,44:20
40,45:20
40,46:3
40,47:5
40,51:20
40,52:20
40,53:3
40,54:9
40,56:5
40,57:1
40,58:1
40,59:8
40,62:20
40,63:18
40,64:9
40,66:9
40,67:5
40,68:11
40,70:4
41,2:4
41,3:4
41,4:14
41,5:4
41,7:14
41,8:7
41,10:8
41,11:1
41,12:1
41,13:10
41,14:5
41,15:14
41,16:8
41,17:1
41,18:4
41,19:4
41,22:5
41,23:7
41,24:4
41,25:3
41,26:11
41,27:11
41,28:7
41,29:11
41,30:4
41,31:7
41,32:7
41,33:7
41,34:11
41,35:9
41,36:14
41,37:14
41,38:14
41,39:14
41,40:11
41,42:11
41,44:9
41,45:9
41,46:14
41,47:6
41,48:11
41,49:11
41,51:9
41,52:9
41,53:14
41,54:2
41,55:11
41,56:6
41,57:10
41,58:10
41,59:3
41,60:11
41,61:11
41,62:9
41,63:7
41,64:2
41,65:11
41,66:2
41,67:6
41,69:11
41,70:7
42,44:20
42,45:20
42,46:3
42,47:5
42,51:20
42,52:20
42,53:3
42,54:9
42,56:5
42,57:1
42,58:1
42,59:8
42,62:20
42,63:18
42,64:9
42,66:9
42,67:5
42,68:11
42,70:4
43,44:20
43,45:20
43,46:3
43,47:5
43,51:20
43,52:20
43,53:3
43,54:9
43,56:5
43,57:1
43,58:1
43,59:8
43,62:20
43,63:18
43,64:9
43,66:9
43,67:5
43,68:11
43,70:4
44,36:23
44,37:23
44,38:23
44,39:23
44,40:20
44,41:9
44,42:20
44,43:20
44,48:20
44,49:20
44,53:23
44,54:11
44,55:20
44,56:15
44,57:19
44,58:19
44,59:12
44,60:20
44,61:20
44,63:2
44,64:11
44,65:20
44,66:11
44,67:15
44,68:9
44,69:20
44,70:16
45,36:23
45,37:23
45,38:23
45,39:23
45,40:20
45,41:9
45,42:20
45,43:20
45,46:23
45,48:20
45,49:20
45,53:23
45,54:11
45,55:20
45,56:15
45,57:19
45,58:19
45,59:12
45,60:20
45,61:20
45,63:2
45,64:11
45,65:20
45,66:11
45,67:15
45,68:9
45,69:20
45,70:16
46,40:3
46,41:14
46,42:3
46,43:3
46,47:8
46,48:3
46,49:3
46,51:23
46,52:23
46,54:12
46,55:3
46,56:8
46,57:4
46,58:4
46,59:11
46,60:3
46,61:3
46,62:23
46,63:21
46,64:12
46,65:3
46,66:12
46,67:8
46,68:14
46,69:3
46,70:7
47,36:8
47,37:8
47,38:8
47,39:8
47,40:5
47,41:6
47,42:5
47,43:5
47,48:5
47,49:5
47,50:5
47,51:15
47,52:15
47,53:8
47,54:4
47,55:5
47,57:4
47,58:4
47,59:3
47,60:5
47,61:5
47,62:15
47,63:13
47,64:4
47,65:5
47,66:4
47,68:6
47,69:5
47,70:1
48,36:3
48,37:3
48,38:3
48,39:3
48,41:11
48,44:20
48,45:20
48,46:3
48,47:5
48,51:20
48,52:20
48,53:3
48,54:9
48,56:5
48,57:1
48,58:1
48,59:8
48,62:20
48,63:18
48,64:9
48,66:9
48,67:5
48,68:11
48,70:4
49,36:3
49,37:3
49,38:3
49,39:3
49,41:11
49,44:20
49,45:20
49,46:3
49,47:5
49,51:20
49,52:20
49,53:3
49,54:9
49,56:5
49,57:1
49,58:1
49,59:8
49,62:20
49,63:18
49,64:9
49,66:9
49,67:5
49,68:11
49,70:4
50,51:20
50,52:20
50,53:3
50,54:9
50,56:5
50,57:1
50,58:1
50,59:8
50,62:20
50,63:18
50,64:9
50,66:9
50,67:5
50,68:11
50,70:4
51,36:23
51,37:23
51,38:23
51,39:23
51,40:20
51,41:9
51,42:20
51,43:20
51,46:23
51,47:15
51,48:20
51,49:20
51,50:20
51,53:23
51,56:15
51,57:19
51,58:19
51,59:12
51,60:20
51,61:20
51,63:2
51,64:11
51,65:20
51,66:11
51,67:15
51,68:9
51,69:20
51,70:16
52,36:23
52,37:23
52,38:23
52,39:23
52,40:20
52,41:9
52,42:20
52,43:20
52,46:23
52,47:15
52,48:20
52,49:20
52,50:20
52,53:23
52,54:11
52,56:15
52,57:19
52,58:19
52,59:12
52,60:20
52,61:20
52,63:2
52,64:11
52,65:20
52,66:11
52,67:15
52,68:9
52,69:20
52,70:16
53,40:3
53,41:14
53,42:3
53,43:3
53,44:23
53,45:23
53,47:8
53,48:3
53,49:3
53,50:3
53,51:23
53,52:23
53,54:12
53,56:8
53,57:4
53,58:4
53,59:11
53,60:3
53,61:3
53,62:23
53,63:21
53,64:12
53,65:3
53,66:12
53,67:8
53,68:14
53,69:3
53,70:7
54,36:12
54,37:12
54,38:12
54,39:12
54,40:9
54,41:2
54,42:9
54,43:9
54,44:11
54,45:11
54,46:12
54,47:4
54,48:9
54,49:9
54,50:9
54,55:9
54,56:4
54,57:8
54,58:8
54,59:1
54,60:9
54,61:9
54,62:11
54,63:9
54,65:9
54,67:4
54,68:2
54,69:9
54,70:5
55,36:3
55,37:3
55,38:3
55,39:3
55,41:11
55,44:20
55,45:20
55,46:3
55,47:5
55,56:5
55,57:1
55,58:1
55,59:8
55,62:20
55,63:18
55,64:9
55,66:9
55,67:5
55,68:11
55,70:4
56,36:8
56,37:8
56,38:8
56,39:8
56,40:5
56,41:6
56,42:5
56,43:5
56,44:15
56,45:15
56,46:8
56,48:5
56,49:5
56,50:5
56,51:15
56,52:15
56,53:8
56,54:4
56,55:5
56,57:4
56,58:4
56,59:3
56,60:5
56,61:5
56,62:15
56,63:13
56,64:4
56,65:5
56,66:4
56,68:6
56,69:5
56,70:1
57,1:6
57,2:6
57,3:6
57,4:4
57,5:6
57,6:10
57,7:4
57,8:3
57,9:10
57,10:2
57,11:11
57,12:11
57,14:15
57,20:10
57,21:10
57,22:15
57,23:17
57,24:6
57,25:7
57,26:1
57,27:1
57,28:3
57,29:1
57,30:6
57,31:3
57,32:3
57,33:17
57,34:1
57,35:19
57,36:4
57,37:4
57,38:4
57,39:4
57,40:1
57,41:10
57,42:1
57,43:1
57,44:19
57,45:19
57,46:4
57,47:4
57,48:1
57,49:1
57,50:1
57,51:19
57,52:19
57,53:4
57,54:8
57,55:1
57,56:4
57,61:1
57,62:19
57,63:17
57,64:8
57,65:1
57,66:8
57,67:4
57,68:10
57,69:1
57,70:3
58,1:6
58,2:6
58,3:6
58,4:4
58,5:6
58,6:10
58,7:4
58,8:3
58,9:10
58,10:2
58,11:11
58,12:11
58,14:15
58,20:10
58,21:10
58,22:15
58,23:17
58,24:6
58,25:7
58,26:1
58,27:1
58,28:3
58,29:1
58,30:6
58,31:3
58,32:3
58,33:17
58,34:1
58,35:19
58,36:4
58,37:4
58,38:4
58,39:4
58,40:1
58,41:10
58,42:1
58,43:1
58,44:19
58,45:19
58,46:4
58,47:4
58,48:1
58,49:1
58,50:1
58,51:19
58,52:19
58,53:4
58,54:8
58,55:1
58,56:4
58,59:7
58,61:1
58,62:19
58,63:17
58,64:8
58,65:1
58,66:8
58,67:4
58,68:10
58,69:1
58,70:3
59,1:1
59,2:1
59,3:1
59,4:11
59,5:1
59,6:3
59,7:11
59,8:4
59,9:3
59,10:5
59,11:4
59,12:4
59,13:7
59,14:8
59,20:3
59,21:3
59,22:8
59,23:10
59,24:1
59,26:8
59,27:8
59,28:4
59,29:8
59,30:1
59,31:4
59,32:4
59,33:10
59,34:8
59,35:12
59,36:11
59,37:11
59,38:11
59,39:11
59,40:8
59,41:3
59,42:8
59,43:8
59,44:12
59,45:12
59,46:11
59,47:3
59,48:8
59,49:8
59,50:8
59,51:12
59,52:12
59,53:11
59,54:1
59,55:8
59,56:3
59,60:8
59,61:8
59,62:12
59,63:10
59,64:1
59,65:8
59,66:1
59,67:3
59,68:3
59,69:8
59,70:4
60,36:3
60,37:3
60,38:3
60,39:3
60,41:11
60,44:20
60,45:20
60,46:3
60,47:5
60,51:20
60,52:20
60,53:3
60,54:9
60,56:5
60,62:20
60,63:18
60,64:9
60,66:9
60,67:5
60,68:11
60,70:4
61,36:3
61,37:3
61,38:3
61,39:3
61,41:11
61,44:20
61,45:20
61,46:3
61,47:5
61,51:20
61,52:20
61,53:3
61,54:9
61,56:5
61,57:1
61,58:1
61,59:8
61,62:20
61,63:18
61,64:9
61,66:9
61,67:5
61,68:11
61,70:4
62,36:23
62,37:23
62,38:23
62,39:23
62,40:20
62,41:9
62,42:20
62,43:20
62,46:23
62,47:15
62,48:20
62,49:20
62,50:20
62,53:23
62,54:11
62,55:20
62,56:15
62,57:19
62,58:19
62,59:12
62,60:20
62,61:20
62,63:2
62,68:9
62,69:20
62,70:16
63,36:21
63,37:21
63,38:21
63,39:21
63,40:18
63,41:7
63,42:18
63,43:18
63,44:2
63,45:2
63,46:21
63,47:13
63,48:18
63,49:18
63,50:18
63,51:2
63,52:2
63,53:21
63,54:9
63,55:18
63,56:13
63,57:17
63,58:17
63,59:10
63,60:18
63,61:18
63,64:9
63,68:7
63,69:18
63,70:14
64,36:12
64,37:12
64,38:12
64,39:12
64,40:9
64,41:2
64,42:9
64,43:9
64,44:11
64,45:11
64,46:12
64,47:4
64,48:9
64,49:9
64,50:9
64,51:11
64,52:11
64,53:12
64,55:9
64,56:4
64,57:8
64,58:8
64,59:1
64,60:9
64,61:9
64,65:9
64,67:4
64,68:2
64,69:9
64,70:5
65,36:3
65,37:3
65,38:3
65,39:3
65,41:11
65,44:20
65,45:20
65,46:3
65,47:5
65,51:20
65,52:20
65,53:3
65,54:9
65,56:5
65,57:1
65,58:1
65,59:8
65,66:9
65,67:5
65,68:11
65,70:4
66,36:12
66,37:12
66,38:12
66,39:12
66,40:9
66,41:2
66,42:9
66,43:9
66,44:11
66,45:11
66,46:12
66,47:4
66,48:9
66,49:9
66,50:9
66,51:11
66,52:11
66,53:12
66,55:9
66,56:4
66,57:8
66,58:8
66,59:1
66,60:9
66,61:9
66,65:9
66,67:4
66,68:2
66,69:9
66,70:5
67,36:8
67,37:8
67,38:8
67,39:8
67,40:5
67,41:6
67,42:5
67,43:5
67,44:15
67,45:15
67,46:8
67,48:5
67,49:5
67,50:5
67,51:15
67,52:15
67,53:8
67,54:4
67,55:5
67,57:4
67,58:4
67,59:3
67,60:5
67,61:5
67,65:5
67,66:4
67,68:6
67,69:5
67,70:1
68,4:14
68,5:4
68,7:14
68,8:7
68,10:8
68,11:1
68,12:1
68,13:10
68,14:5
68,15:14
68,16:8
68,17:1
68,18:4
68,19:4
68,22:5
68,23:7
68,24:4
68,25:3
68,26:11
68,27:11
68,28:7
68,29:11
68,30:4
68,31:7
68,32:7
68,33:7
68,34:11
68,35:9
68,36:14
68,37:14
68,38:14
68,39:14
68,40:11
68,42:11
68,43:11
68,44:9
68,45:9
68,46:14
68,47:6
68,48:11
68,49:11
68,50:11
68,51:9
68,52:9
68,53:14
68,54:2
68,55:11
68,56:6
68,57:10
68,58:10
68,59:3
68,60:11
68,61:11
68,62:9
68,63:7
68,64:2
68,65:11
68,66:2
68,67:6
68,69:11
68,70:7
69,2:7
69,3:7
69,4:3
69,5:7
69,6:11
69,7:3
69,8:4
69,9:11
69,10:3
69,11:12
69,12:12
69,13:1
69,14:16
69,15:3
69,16:3
69,17:12
69,18:7
69,19:7
69,20:11
69,21:11
69,22:16
69,23:18
69,24:7
69,25:8
69,28:4
69,30:7
69,31:4
69,32:4
69,33:18
69,35:20
69,36:3
69,37:3
69,38:3
69,39:3
69,41:11
69,44:20
69,45:20
69,46:3
69,47:5
69,51:20
69,52:20
69,53:3
69,54:9
69,56:5
69,57:1
69,58:1
69,59:8
69,62:20
69,63:18
69,64:9
69,66:9
69,67:5
69,68:11
69,70:4
70,2:3
70,3:3
70,4:7
70,5:3
70,6:7
70,7:7
70,9:7
70,10:1
70,11:8
70,12:8
70,13:3
70,14:12
70,15:7
70,16:1
70,17:8
70,18:3
70,19:3
70,20:7
70,21:7
70,22:12
70,23:14
70,24:3
70,25:4
70,26:4
70,27:4
70,29:4
70,30:3
70,33:14
70,34:4
70,35:16
70,36:7
70,37:7
70,38:7
70,39:7
70,40:4
70,41:7
70,42:4
70,43:4
70,44:16
70,45:16
70,46:7
70,47:1
70,48:4
70,49:4
70,50:4
70,51:16
70,52:16
70,53:7
70,54:5
70,55:4
70,56:1
70,57:3
70,58:3
70,59:4
70,60:4
70,61:4
70,62:16
70,63:14
70,64:5
70,65:4
70,66:5
70,67:1
70,68:7
70,69:4

<setup times backward>
1,9:4
1,11:5
1,17:5
1,20:4
1,21:4
1,22:9
1,59:1
2,9:4
2,11:5
2,17:5
2,20:4
2,21:4
2,22:9
2,41:4
2,59:1
3,9:4
3,11:5
3,17:5
3,20:4
3,21:4
3,22:9
3,41:4
3,59:1
4,1:10
4,2:10
4,3:10
4,5:10
4,9:14
4,10:6
4,11:15
4,16:6
4,17:15
4,18:10
4,19:10
4,20:14
4,21:14
4,22:19
4,24:10
4,30:10
4,41:14
4,57:4
4,58:4
4,59:11
4,68:14
4,69:3
4,70:7
5,9:4
5,11:5
5,17:5
5,20:4
5,21:4
5,22:9
5,41:4
5,59:1
5,68:4
6,11:1
6,17:1
6,22:5
7,1:10
7,2:10
7,3:10
7,5:10
7,6:14
7,9:14
7,10:6
7,11:15
7,16:6
7,17:15
7,18:10
7,19:10
7,20:14
7,21:14
7,22:19
7,24:10
7,30:10
7,41:14
7,57:4
7,58:4
7,59:11
7,68:14
7,69:3
7,70:7
8,1:3
8,2:3
8,3:3
8,5:3
8,6:7
8,9:7
8,11:8
8,17:8
8,18:3
8,19:3
8,20:7
8,21:7
8,22:12
8,24:3
8,30:3
8,41:7
8,59:4
8,68:7
9,17:1
9,22:5
10,1:4
10,2:4
10,3:4
10,5:4
10,6:8
10,8:1
10,9:8
10,17:9
10,18:4
10,19:4
10,20:8
10,21:8
10,22:13
10,24:4
10,30:4
10,41:8
10,59:5
10,68:8
10,70:1
11,22:4
12,22:4
13,1:6
13,2:6
13,3:6
13,5:6
13,6:10
13,8:3
13,9:10
13,10:2
13,11:11
13,12:11
13,14:15
13,16:2
13,17:11
13,18:6
13,19:6
13,20:10
13,21:10
13,22:15
13,24:6
13,30:6
13,41:10
13,59:7
13,68:10
13,70:3
15,1:10
15,2:10
15,3:10
15,5:10
15,6:14
15,8:7
15,9:14
15,10:6
15,11:15
15,12:15
15,13:4
15,14:19
15,24:10
15,30:10
15,41:14
15,68:14
15,69:3
15,70:7
16,1:4
16,2:4
16,3:4
16,5:4
16,6:8
16,8:1
16,9:8
16,11:9
16,12:9
16,14:13
16,24:4
16,30:4
16,41:8
16,68:8
16,70:1
17,14:4
18,6:4
18,9:4
18,11:5
18,12:5
18,14:9
18,17:5
18,41:4
18,68:4
19,6:4
19,9:4
19,11:5
19,12:5
19,14:9
19,17:5
19,41:4
19,68:4
20,11:1
20,12:1
20,14:5
20,17:1
20,22:5
21,11:1
21,12:1
21,14:5
21,17:1
21,22:5
24,6:4
24,9:4
24,11:5
24,12:5
24,14:9
24,17:5
24,20:4
24,21:4
24,22:9
24,23:11
24,33:11
24,41:4
24,59:1
24,68:4
25,6:3
25,9:3
25,11:4
25,12:4
25,14:8
25,17:4
25,20:3
25,21:3
25,22:8
25,23:10
25,33:10
25,41:3
25,68:3
26,1:7
26,2:7
26,3:7
26,5:7
26,6:11
26,8:4
26,9:11
26,10:3
26,11:12
26,12:12
26,13:1
26,14:16
26,16:3
26,17:12
26,18:7
26,19:7
26,20:11
26,21:11
26,22:16
26,23:18
26,24:7
26,25:8
26,28:4
26,30:7
26,31:4
26,32:4
26,33:18
26,41:11
26,57:1
26,58:1
26,59:8
26,68:11
26,70:4
27,1:7
27,2:7
27,3:7
27,5:7
27,6:11
27,8:4
27,9:11
27,10:3
27,11:12
27,12:12
27,13:1
27,14:16
27,16:3
27,17:12
27,18:7
27,19:7
27,20:11
27,21:11
27,22:16
27,23:18
27,24:7
27,25:8
27,28:4
27,30:7
27,31:4
27,32:4
27,33:18
27,41:11
27,57:1
27,58:1
27,59:8
27,68:11
27,70:4
28,1:3
28,2:3
28,3:3
28,5:3
28,6:7
28,9:7
28,11:8
28,12:8
28,14:12
28,17:8
28,18:3
28,19:3
28,20:7
28,21:7
28,22:12
28,23:14
28,24:3
28,25:4
28,30:3
28,33:14
28,41:7
28,59:4
28,68:7
29,1:7
29,2:7
29,3:7
29,5:7
29,6:11
29,8:4
29,9:11
29,10:3
29,11:12
29,12:12
29,13:1
29,14:16
29,16:3
29,17:12
29,18:7
29,19:7
29,20:11
29,21:11
29,22:16
29,23:18
29,24:7
29,25:8
29,28:4
29,30:7
29,31:4
29,32:4
29,33:18
29,41:11
29,57:1
29,58:1
29,59:8
29,68:11
29,70:4
30,6:4
30,9:4
30,11:5
30,12:5
30,14:9
30,17:5
30,20:4
30,21:4
30,22:9
30,23:11
30,25:1
30,33:11
30,41:4
30,59:1
30,68:4
31,1:3
31,2:3
31,3:3
31,5:3
31,6:7
31,9:7
31,11:8
31,12:8
31,14:12
31,17:8
31,18:3
31,19:3
31,20:7
31,21:7
31,22:12
31,23:14
31,24:3
31,25:4
31,30:3
31,33:14
31,41:7
31,59:4
31,68:7
32,1:3
32,2:3
32,3:3
32,5:3
32,6:7
32,9:7
32,11:8
32,12:8
32,14:12
32,17:8
32,18:3
32,19:3
32,20:7
32,21:7
32,22:12
32,23:14
32,24:3
32,25:4
32,30:3
32,33:14
32,41:7
32,59:4
32,68:7
34,1:7
34,2:7
34,3:7
34,5:7
34,6:11
34,8:4
34,9:11
34,10:3
34,11:12
34,12:12
34,13:1
34,14:16
34,16:3
34,17:12
34,18:7
34,19:7
34,20:11
34,21:11
34,22:16
34,23:18
34,24:7
34,25:8
34,28:4
34,30:7
34,31:4
34,32:4
34,33:18
34,41:11
34,57:1
34,58:1
34,59:8
34,68:11
34,70:4
36,1:10
36,2:10
36,3:10
36,5:10
36,6:14
36,8:7
36,9:14
36,10:6
36,11:15
36,12:15
36,13:4
36,14:19
36,16:6
36,17:15
36,18:10
36,19:10
36,20:14
36,21:14
36,22:19
36,23:21
36,24:10
36,25:11
36,26:3
36,27:3
36,28:7
36,29:3
36,30:10
36,31:7
36,32:7
36,33:21
36,34:3
36,35:23
36,41:14
36,44:23
36,45:23
36,47:8
36,48:3
36,49:3
36,51:23
36,52:23
36,54:12
36,55:3
36,56:8
36,57:4
36,58:4
36,59:11
36,60:3
36,61:3
36,62:23
36,63:21
36,64:12
36,65:3
36,66:12
36,67:8
36,68:14
36,69:3
36,70:7
37,1:10
37,2:10
37,3:10
37,5:10
37,6:14
37,8:7
37,9:14
37,10:6
37,11:15
37,12:15
37,13:4
37,14:19
37,16:6
37,17:15
37,18:10
37,19:10
37,20:14
37,21:14
37,22:19
37,23:21
37,24:10
37,25:11
37,26:3
37,27:3
37,28:7
37,29:3
37,30:10
37,31:7
37,32:7
37,33:21
37,34:3
37,35:23
37,41:14
37,44:23
37,45:23
37,47:8
37,48:3
37,49:3
37,51:23
37,52:23
37,54:12
37,55:3
37,56:8
37,57:4
37,58:4
37,59:11
37,60:3
37,61:3
37,62:23
37,63:21
37,64:12
37,65:3
37,66:12
37,67:8
37,68:14
37,69:3
37,70:7
38,1:10
38,2:10
38,3:10
38,5:10
38,6:14
38,8:7
38,9:14
38,10:6
38,11:15
38,12:15
38,13:4
38,14:19
38,16:6
38,17:15
38,18:10
38,19:10
38,20:14
38,21:14
38,22:19
38,23:21
38,24:10
38,25:11
38,26:3
38,27:3
38,28:7
38,29:3
38,30:10
38,31:7
38,32:7
38,33:21
38,34:3
38,35:23
38,41:14
38,44:23
38,45:23
38,47:8
38,48:3
38,49:3
38,51:23
38,52:23
38,54:12
38,55:3
38,56:8
38,57:4
38,58:4
38,59:11
38,60:3
38,61:3
38,62:23
38,63:21
38,64:12
38,65:3
38,66:12
38,67:8
38,68:14
38,69:3
38,70:7
39,1:10
39,2:10
39,3:10
39,5:10
39,6:14
39,8:7
39,9:14
39,10:6
39,11:15
39,12:15
39,13:4
39,14:19
39,16:6
39,17:15
39,18:10
39,19:10
39,20:14
39,21:14
39,22:19
39,23:21
39,24:10
39,25:11
39,26:3
39,27:3
39,28:7
39,29:3
39,30:10
39,31:7
39,32:7
39,33:21
39,34:3
39,35:23
39,41:14
39,44:23
39,45:23
39,47:8
39,48:3
39,49:3
39,51:23
39,52:23
39,54:12
39,55:3
39,56:8
39,57:4
39,58:4
39,59:11
39,60:3
39,61:3
39,62:23
39,63:21
39,64:12
39,65:3
39,66:12
39,67:8
39,68:14
39,69:3
39,70:7
40,1:7
40,2:7
40,3:7
40,5:7
40,6:11
40,8:4
40,9:11
40,10:3
40,11:12
40,12:12
40,13:1
40,14:16
40,16:3
40,17:12
40,18:7
40,19:7
40,20:11
40,21:11
40,22:16
40,23:18
40,24:7
40,25:8
40,28:4
40,30:7
40,31:4
40,32:4
40,33:18
40,35:20
40,41:11
40,44:20
40,45:20
40,47:5
40,51:20
40,52:20
40,54:9
40,56:5
40,57:1
40,58:1
40,59:8
40,62:20
40,63:18
40,64:9
40,66:9
40,67:5
40,68:11
40,70:4
41,11:1
41,12:1
41,14:5
41,17:1
41,22:5
41,23:7
41,33:7
41,35:9
41,44:9
41,45:9
41,51:9
41,52:9
41,62:9
41,63:7
42,1:7
42,2:7
42,3:7
42,5:7
42,6:11
42,8:4
42,9:11
42,10:3
42,11:12
42,12:12
42,13:1
42,14:16
42,16:3
42,17:12
42,18:7
42,19:7
42,20:11
42,21:11
42,22:16
42,23:18
42,24:7
42,25:8
42,28:4
42,30:7
42,31:4
42,32:4
42,33:18
42,35:20
42,41:11
42,44:20
42,45:20
42,47:5
42,51:20
42,52:20
42,54:9
42,56:5
42,57:1
42,58:1
42,59:8
42,62:20
42,63:18
42,64:9
42,66:9
42,67:5
42,68:11
42,70:4
43,1:7
43,2:7
43,3:7
43,5:7
43,6:11
43,8:4
43,9:11
43,10:3
43,11:12
43,12:12
43,13:1
43,14:16
43,16:3
43,17:12
43,18:7
43,19:7
43,20:11
43,21:11
43,22:16
43,23:18
43,24:7
43,25:8
43,28:4
43,30:7
43,31:4
43,32:4
43,33:18
43,35:20
43,41:11
43,44:20
43,45:20
43,47:5
43,51:20
43,52:20
43,54:9
43,56:5
43,57:1
43,58:1
43,59:8
43,62:20
43,63:18
43,64:9
43,66:9
43,67:5
43,68:11
43,70:4
46,1:10
46,2:10
46,3:10
46,5:10
46,6:14
46,8:7
46,9:14
46,10:6
46,11:15
46,12:15
46,13:4
46,14:19
46,16:6
46,17:15
46,18:10
46,19:10
46,20:14
46,21:14
46,22:19
46,23:21
46,24:10
46,25:11
46,26:3
46,27:3
46,28:7
46,29:3
46,30:10
46,31:7
46,32:7
46,33:21
46,34:3
46,35:23
46,40:3
46,41:14
46,42:3
46,43:3
46,44:23
46,45:23
46,48:3
46,49:3
46,51:23
46,52:23
46,54:12
46,55:3
46,56:8
46,57:4
46,58:4
46,59:11
46,60:3
46,61:3
46,62:23
46,63:21
46,64:12
46,65:3
46,66:12
46,67:8
46,68:14
46,69:3
46,70:7
47,1:2
47,2:2
47,3:2
47,5:2
47,6:6
47,9:6
47,11:7
47,12:7
47,14:11
47,17:7
47,18:2
47,19:2
47,20:6
47,21:6
47,22:11
47,23:13
47,24:2
47,25:3
47,30:2
47,33:13
47,35:15
47,41:6
47,44:15
47,45:15
47,51:15
47,52:15
47,54:4
47,59:3
47,62:15
47,63:13
47,64:4
47,66:4
47,68:6
48,1:7
48,2:7
48,3:7
48,5:7
48,6:11
48,8:4
48,9:11
48,10:3
48,11:12
48,12:12
48,13:1
48,14:16
48,16:3
48,17:12
48,18:7
48,19:7
48,20:11
48,21:11
48,22:16
48,23:18
48,24:7
48,25:8
48,28:4
48,30:7
48,31:4
48,32:4
48,33:18
48,35:20
48,41:11
48,44:20
48,45:20
48,47:5
48,51:20
48,52:20
48,54:9
48,56:5
48,57:1
48,58:1
48,59:8
48,62:20
48,63:18
48,64:9
48,66:9
48,67:5
48,68:11
48,70:4
49,1:7
49,2:7
49,3:7
49,5:7
49,6:11
49,8:4
49,9:11
49,10:3
49,11:12
49,12:12
49,13:1
49,14:16
49,16:3
49,17:12
49,18:7
49,19:7
49,20:11
49,21:11
49,22:16
49,23:18
49,24:7
49,25:8
49,28:4
49,30:7
49,31:4
49,32:4
49,33:18
49,35:20
49,41:11
49,44:20
49,45:20
49,47:5
49,51:20
49,52:20
49,54:9
49,56:5
49,57:1
49,58:1
49,59:8
49,62:20
49,63:18
49,64:9
49,66:9
49,67:5
49,68:11
49,70:4
50,1:7
50,2:7
50,3:7
50,5:7
50,6:11
50,8:4
50,9:11
50,10:3
50,11:12
50,12:12
50,13:1
50,14:16
50,16:3
50,17:12
50,18:7
50,19:7
50,20:11
50,21:11
50,22:16
50,23:18
50,24:7
50,25:8
50,28:4
50,30:7
50,31:4
50,32:4
50,33:18
50,35:20
50,41:11
50,44:20
50,45:20
50,47:5
50,51:20
50,52:20
50,54:9
50,56:5
50,57:1
50,58:1
50,59:8
50,62:20
50,63:18
50,64:9
50,66:9
50,67:5
50,68:11
50,70:4
53,1:10
53,2:10
53,3:10
53,5:10
53,6:14
53,8:7
53,9:14
53,10:6
53,11:15
53,12:15
53,13:4
53,14:19
53,16:6
53,17:15
53,18:10
53,19:10
53,20:14
53,21:14
53,22:19
53,23:21
53,24:10
53,25:11
53,26:3
53,27:3
53,28:7
53,29:3
53,30:10
53,31:7
53,32:7
53,33:21
53,34:3
53,35:23
53,40:3
53,41:14
53,42:3
53,43:3
53,44:23
53,45:23
53,47:8
53,48:3
53,49:3
53,50:3
53,51:23
53,52:23
53,56:8
53,57:4
53,58:4
53,59:11
53,60:3
53,61:3
53,62:23
53,63:21
53,64:12
53,65:3
53,66:12
53,67:8
53,68:14
53,69:3
53,70:7
54,6:2
54,9:2
54,11:3
54,12:3
54,14:7
54,17:3
54,20:2
54,21:2
54,22:7
54,23:9
54,33:9
54,35:11
54,41:2
54,44:11
54,45:11
54,51:11
54,52:11
54,62:11
54,63:9
54,68:2
55,1:7
55,2:7
55,3:7
55,5:7
55,6:11
55,8:4
55,9:11
55,10:3
55,11:12
55,12:12
55,13:1
55,14:16
55,16:3
55,17:12
55,18:7
55,19:7
55,20:11
55,21:11
55,22:16
55,23:18
55,24:7
55,25:8
55,28:4
55,30:7
55,31:4
55,32:4
55,33:18
55,35:20
55,41:11
55,44:20
55,45:20
55,47:5
55,51:20
55,52:20
55,54:9
55,56:5
55,57:1
55,58:1
55,59:8
55,62:20
55,63:18
55,64:9
55,66:9
55,67:5
55,68:11
55,70:4
56,1:2
56,2:2
56,3:2
56,5:2
56,6:6
56,9:6
56,11:7
56,12:7
56,14:11
56,17:7
56,18:2
56,19:2
56,20:6
56,21:6
56,22:11
56,23:13
56,24:2
56,25:3
56,30:2
56,33:13
56,35:15
56,41:6
56,44:15
56,45:15
56,51:15
56,52:15
56,54:4
56,59:3
56,62:15
56,63:13
56,64:4
56,66:4
56,68:6
57,1:6
57,2:6
57,3:6
57,5:6
57,6:10
57,8:3
57,9:10
57,10:2
57,11:11
57,12:11
57,14:15
57,16:2
57,17:11
57,18:6
57,19:6
57,20:10
57,21:10
57,22:15
57,23:17
57,24:6
57,25:7
57,28:3
57,30:6
57,31:3
57,32:3
57,33:17
57,35:19
57,41:10
57,44:19
57,45:19
57,47:4
57,51:19
57,52:19
57,54:8
57,56:4
57,62:19
57,63:17
57,64:8
57,66:8
57,67:4
57,68:10
57,70:3
58,1:6
58,2:6
58,3:6
58,5:6
58,6:10
58,8:3
58,9:10
58,10:2
58,11:11
58,12:11
58,14:15
58,16:2
58,17:11
58,18:6
58,19:6
58,20:10
58,21:10
58,22:15
58,23:17
58,24:6
58,25:7
58,28:3
58,30:6
58,31:3
58,32:3
58,33:17
58,35:19
58,41:10
58,44:19
58,45:19
58,47:4
58,51:19
58,52:19
58,54:8
58,56:4
58,62:19
58,63:17
58,64:8
58,66:8
58,67:4
58,68:10
58,70:3
59,6:3
59,9:3
59,11:4
59,12:4
59,14:8
59,17:4
59,20:3
59,21:3
59,22:8
59,23:10
59,33:10
59,35:12
59,41:3
59,44:12
59,45:12
59,51:12
59,52:12
59,54:1
59,62:12
59,63:10
59,64:1
59,66:1
59,68:3
60,1:7
60,2:7
60,3:7
60,5:7
60,6:11
60,8:4
60,9:11
60,10:3
60,11:12
60,12:12
60,13:1
60,14:16
60,16:3
60,17:12
60,18:7
60,19:7
60,20:11
60,21:11
60,22:16
60,23:18
60,24:7
60,25:8
60,28:4
60,30:7
60,31:4
60,32:4
60,33:18
60,35:20
60,41:11
60,44:20
60,45:20
60,47:5
60,51:20
60,52:20
60,54:9
60,56:5
60,57:1
60,58:1
60,59:8
60,62:20
60,63:18
60,64:9
60,66:9
60,67:5
60,68:11
60,70:4
61,1:7
61,2:7
61,3:7
61,5:7
61,6:11
61,8:4
61,9:11
61,10:3
61,11:12
61,12:12
61,13:1
61,14:16
61,16:3
61,17:12
61,18:7
61,19:7
61,20:11
61,21:11
61,22:16
61,23:18
61,24:7
61,25:8
61,28:4
61,30:7
61,31:4
61,32:4
61,33:18
61,35:20
61,41:11
61,44:20
61,45:20
61,47:5
61,51:20
61,52:20
61,54:9
61,56:5
61,57:1
61,58:1
61,59:8
61,62:20
61,63:18
61,64:9
61,66:9
61,67:5
61,68:11
61,70:4
63,35:2
63,44:2
63,45:2
63,51:2
63,52:2
63,62:2
64,6:2
64,9:2
64,11:3
64,12:3
64,14:7
64,17:3
64,20:2
64,21:2
64,22:7
64,23:9
64,33:9
64,35:11
64,41:2
64,44:11
64,45:11
64,51:11
64,52:11
64,62:11
64,63:9
64,68:2
65,1:7
65,2:7
65,3:7
65,5:7
65,6:11
65,8:4
65,9:11
65,10:3
65,11:12
65,12:12
65,13:1
65,14:16
65,16:3
65,17:12
65,18:7
65,19:7
65,20:11
65,21:11
65,22:16
65,23:18
65,24:7
65,25:8
65,28:4
65,30:7
65,31:4
65,32:4
65,33:18
65,35:20
65,41:11
65,44:20
65,45:20
65,47:5
65,51:20
65,52:20
65,54:9
65,56:5
65,57:1
65,58:1
65,59:8
65,62:20
65,63:18
65,64:9
65,66:9
65,67:5
65,68:11
65,70:4
66,6:2
66,9:2
66,11:3
66,12:3
66,14:7
66,17:3
66,20:2
66,21:2
66,22:7
66,23:9
66,33:9
66,35:11
66,41:2
66,44:11
66,45:11
66,51:11
66,52:11
66,62:11
66,63:9
66,68:2
67,1:2
67,2:2
67,3:2
67,5:2
67,6:6
67,9:6
67,11:7
67,12:7
67,14:11
67,17:7
67,18:2
67,19:2
67,20:6
67,21:6
67,22:11
67,23:13
67,24:2
67,25:3
67,30:2
67,33:13
67,35:15
67,41:6
67,44:15
67,45:15
67,51:15
67,52:15
67,54:4
67,59:3
67,62:15
67,63:13
67,64:4
67,66:4
67,68:6
68,11:1
68,12:1
68,14:5
68,17:1
68,22:5
68,23:7
68,33:7
68,35:9
68,44:9
68,45:9
68,51:9
68,52:9
68,62:9
68,63:7
69,1:7
69,2:7
69,3:7
69,5:7
69,6:11
69,8:4
69,9:11
69,10:3
69,11:12
69,12:12
69,13:1
69,14:16
69,16:3
69,17:12
69,18:7
69,19:7
69,20:11
69,21:11
69,22:16
69,23:18
69,24:7
69,25:8
69,28:4
69,30:7
69,31:4
69,32:4
69,33:18
69,35:20
69,41:11
69,44:20
69,45:20
69,47:5
69,51:20
69,52:20
69,54:9
69,56:5
69,57:1
69,58:1
69,59:8
69,62:20
69,63:18
69,64:9
69,66:9
69,67:5
69,68:11
69,70:4
70,1:3
70,2:3
70,3:3
70,5:3
70,6:7
70,9:7
70,11:8
70,12:8
70,14:12
70,17:8
70,18:3
70,19:3
70,20:7
70,21:7
70,22:12
70,23:14
70,24:3
70,25:4
70,30:3
70,33:14
70,35:16
70,41:7
70,44:16
70,45:16
70,47:1
70,51:16
70,52:16
70,54:5
70,56:1
70,59:4
70,62:16
70,63:14
70,64:5
70,66:5
70,67:1
70,68:7

<end>

<optimal SALBP-1 value>
21


<rand seed>
467321153

